$ Reference: "Ab inito study of intrinsic point defects in PbTe: an insight into phase
$ stability", Bajaj, S., et al. Acta Materialia 92, 2015, doi: 10.1016/j.actamat.2015.03.034

ELEMENT VA   VACANCY                  0.0000E+00  0.0000E+00  0.0000E+00!
ELEMENT /-   ELECTRON_GAS              0.0000E+00  0.0000E+00  0.0000E+00!
ELEMENT PB   FCC_A1                    2.072E+02	6.870E+03	6.48E+01!
ELEMENT TE   HEXAGONAL_A8              1.2760E+02  6.1212E+03  4.9497E+01!


SPECIES PBTE_L PB1TE1 !  


FUNCTION GHSERPB	298.15 -7650.09+101.7*T-24.5242*T*LN(T)
-0.00365895*T**2-2.4395E-007*T**3; 600.61 Y
-10531.1+154.243*T-32.4914*T*LN(T)
+0.00154613*T**2+8.05448E+025*T**(-9); 1200 Y
4157.62+53.1391*T-18.9641*T*LN(T)
-0.00288294*T**2+9.8144E-008*T**3-2.69676E+006*T**(-1)+8.05448E+025*T**(-9); 2100 N !
FUNCTION GHSERTE    2.98150E+02  -10544.679+183.372894*T-35.6687*T*LN(T)
+.01583435*T**2-5.240417E-06*T**3+155015*T**(-1);  7.22660E+02  Y
+9160.595-129.265373*T+13.004*T*LN(T)-.0362361*T**2+5.006367E-06*T**3
-1286810*T**(-1);  1.15000E+03  Y
-12781.349+174.901226*T-32.5596*T*LN(T);  1.60000E+03  N !
FUNCTION GLIQTE   2.98150E+02  -17554.731+685.877639*T
-126.318*T*LN(T)+.2219435*T**2-9.42075E-05*T**3+827930*T**(-1);  
6.26490E+02  Y
-3165763.48+46756.357*T-7196.41*T*LN(T)+7.09775*T**2-.00130692833*T**3
+2.58051E+08*T**(-1);  7.22660E+02  Y
+180326.959-1500.57909*T+202.743*T*LN(T)-.142016*T**2+1.6129733E-05*T**3
-24238450*T**(-1);  1.15000E+03  Y
+6328.687+148.708299*T-32.5596*T*LN(T);  1.60000E+03  N REF0   !
FUNCTION GLIQPB   298.15 -2977.96+93.9496*T-24.5242*T*LN(T)
-0.00365895*T**2-2.4395E-007*T**3-6.019E-019*T**7; 600.61 Y
-5677.96+146.176*T-32.4914*T*LN(T)
+0.00154613*T**2; 1200 Y
9010.75+45.0719*T-18.9641*T*LN(T)
-0.00288294*T**2+9.8144E-008*T**3-2.69676E+006*T**(-1); 2100 N !


PHASE LIQUID %  1	1 !
CONSTITUENT LIQUID :PB,TE,PBTE_L :  !
PARAMETER G(LIQUID,PB;0)  298.15 -2977.96+93.9496*T-24.5242*T*LN(T)
-0.00365895*T**2-2.4395E-007*T**3-6.019E-019*T**7; 600.61 Y
-5677.96+146.176*T-32.4914*T*LN(T)
+0.00154613*T**2; 1200 Y
9010.75+45.0719*T-18.9641*T*LN(T)
-0.00288294*T**2+9.8144E-008*T**3-2.69676E+006*T**(-1); 2100 N !
PARAMETER G(LIQUID,TE;0)  2.98150E+02  -17554.731+685.877639*T
-126.318*T*LN(T)+.2219435*T**2-9.42075E-05*T**3+827930*T**(-1);  
6.26490E+02  Y
-3165763.48+46756.357*T-7196.41*T*LN(T)+7.09775*T**2-.00130692833*T**3
+2.58051E+08*T**(-1);  7.22660E+02  Y
+180326.959-1500.57909*T+202.743*T*LN(T)-.142016*T**2+1.6129733E-05*T**3
-24238450*T**(-1);  1.15000E+03  Y
+6328.687+148.708299*T-32.5596*T*LN(T);  1.60000E+03  N REF0   !
PARAMETER G(LIQUID,PBTE_L;0)  2.98150E+02  GLIQPB#+GLIQTE#-61700+18.9*T;  2.00000E+03  N REF0   !
PARAMETER G(LIQUID,PB,PBTE_L;0)  2.98150E+02  15965.83-3.8*T;  2.00000E+03  N REF0   !
PARAMETER G(LIQUID,PB,PBTE_L;1)  2.98150E+02  3681.91;  2.00000E+03  N REF0   !
PARAMETER G(LIQUID,TE,PBTE_L;0)  2.98150E+02  -6216.19+5.56*T;  2.00000E+03  N REF0   !
PARAMETER G(LIQUID,TE,PBTE_L;1)  2.98150E+02  1174.92;  2.00000E+03  N REF0   !

$OPTIMIZATION P1 	-200000	-86518;	-25000	N !
$OPTIMIZATION P2 	-250	-25.657;	30	N !
$OPTIMIZATION P3		-200000	-85071;	-25000	N !
$OPTIMIZATION P4 	-250	-23;	50	N !
PHASE PBTE % 2	1	1 !
CONSTITUENT PBTE :PB,VA:TE,VA:!
PARAMETER G(PBTE,PB:TE;0)  298.15 GHSERPB+GHSERTE-65055+5.87*T; 2000 N !
PARAMETER G(PBTE,PB:VA;0)  298.15 GHSERPB+174091.2; 2000 N !
PARAMETER G(PBTE,VA:TE;0)  298.15 GHSERTE+157960.355; 2000 N !
PARAMETER G(PBTE,PB,VA:TE;0)  298.15 -103462.5-5.2714*T; 2000 N !
PARAMETER G(PBTE,PB,VA:TE;1)  298.15 -12000+5.5*T; 2000 N !
PARAMETER G(PBTE,PB:VA,TE;0)  298.15 -84750.59-28.0930*T; 2000 N !
PARAMETER G(PBTE,PB:VA,TE;1)  298.15 -8000+4.5*T; 2000 N !
PARAMETER G(PBTE,PB,VA:TE,VA;0)  298.15 -62405.5-9.919*T; 2000 N !

PHASE HEXAGONAL_A8 % 1 1 !
CONSTITUENT HEXAGONAL_A8 :TE:!
PARAMETER G(HEXAGONAL_A8,TE;0)  298.15 -10544.7+183.373*T-35.6687*T*LN(T)
+0.0158344*T**2-5.24042E-006*T**3+155015*T**(-1); 722.66 Y
9160.59-129.265*T+13.004*T*LN(T)
-0.0362361*T**2+5.00637E-006*T**3-1.28681E+006*T**(-1); 1150 Y
-12781.3+174.901*T-32.5596*T*LN(T); 1600 N !

PHASE RHOMBOHEDRAL_A7 % 1 1.0 !
CONSTITUENT RHOMBOHEDRAL_A7 :PB,TE:!
PARAMETER G(RHOMBOHEDRAL_A7,PB;0)  298.15 -7350.09+102.7*T-24.5242*T*LN(T)
-0.00365895*T**2-2.4395E-007*T**3; 600.61 Y
-10231.1+155.243*T-32.4914*T*LN(T)
+0.00154613*T**2+8.05448E+025*T**(-9); 1200 Y
4457.62+54.1391*T-18.9641*T*LN(T)
-0.00288294*T**2+9.8144E-008*T**3-2.69676E+006*T**(-1)+8.05448E+025*T**(-9); 2100 N !
PARAMETER G(RHOMBOHEDRAL_A7,TE;0)  2.98150E+02  +500+GHSERTE#;  
2.00000E+03  N REF0   !


LIST_OF_REFERENCES
NUMBER  SOURCE
!
                                                                                                                                                                                                                                                                                                                                                                                                                                                                                                          


