$ Reference: "Phase stability in nanoscale material systems: extension from bulk phase diagrams", Bajaj, S. et al,
$ Nanoscale 7, 2015, doi: 10.1039/C5NR01535A
$ Database file written 2013- 8-24
$ From database: PURE4                   
 ELEMENT /-   ELECTRON_GAS              0.0000E+00  0.0000E+00  0.0000E+00!
 ELEMENT VA   VACUUM                    0.0000E+00  0.0000E+00  0.0000E+00!
 ELEMENT AU   FCC_A1                    1.9697E+02  6.0166E+03  4.7488E+01!
 ELEMENT SI   DIAMOND_A4                2.8085E+01  3.2175E+03  1.8820E+01!


 FUNCTION GHSERAU    2.98150E+02  -6938.856+106.830098*T-22.75455*T*LN(T)
     -.00385924*T**2+3.79625E-07*T**3-25097*T**(-1);  9.29400E+02  Y
      -93586.481+1021.69543*T-155.706745*T*LN(T)+.08756015*T**2
     -1.1518713E-05*T**3+10637210*T**(-1);  1.33733E+03  Y
      +314067.829-2016.37825*T+263.252259*T*LN(T)-.118216828*T**2
     +8.923844E-06*T**3-67999832*T**(-1);  1.73580E+03  Y
      -12133.783+165.272524*T-30.9616*T*LN(T);  3.20000E+03  N !
 FUNCTION GHSERSI    2.98150E+02  -8162.609+137.236859*T-22.8317533*T*LN(T)
     -.001912904*T**2-3.552E-09*T**3+176667*T**(-1);  1.68700E+03  Y
      -9457.642+167.281367*T-27.196*T*LN(T)-4.20369E+30*T**(-9);  
     3.60000E+03  N !
 FUNCTION UN_ASS 298.15 0; 300 N !

 TYPE_DEFINITION % SEQ *!
 DEFINE_SYSTEM_DEFAULT ELEMENT 2 !
 DEFAULT_COMMAND DEF_SYS_ELEMENT VA /- !


 PHASE LIQUID:L %  1  1.0  !
    CONSTITUENT LIQUID:L :AU,SI :  !

   PARAMETER G(LIQUID,AU;0)  2.98150E+02  +5613.144+97.444232*T
  -22.75455*T*LN(T)-.00385924*T**2+3.79625E-07*T**3-25097*T**(-1);  
  9.29400E+02  Y
   -81034.481+1012.30956*T-155.706745*T*LN(T)+.08756015*T**2
  -1.1518713E-05*T**3+10637210*T**(-1);  1.33733E+03  Y
   +326619.829-2025.76412*T+263.252259*T*LN(T)-.118216828*T**2
  +8.923844E-06*T**3-67999832*T**(-1);  1.73580E+03  Y
   +418.217+155.886658*T-30.9616*T*LN(T);  3.20000E+03  N REF1 !
   PARAMETER G(LIQUID,SI;0)  2.98150E+02  +42533.751+107.13742*T
  -22.8317533*T*LN(T)-.001912904*T**2-3.552E-09*T**3+176667*T**(-1)
  +2.09307E-21*T**7;  1.68700E+03  Y
   +40370.523+137.722298*T-27.196*T*LN(T);  3.60000E+03  N REF1 !
   PARAMETER G(LIQUID,AU,SI;0)  2.98150E+02  -24103.3028-15.13883*T;   
  6.00000E+03   N REF0 !
   PARAMETER G(LIQUID,AU,SI;1)  2.98150E+02  -29375.2777+1.1065*T;   
  6.00000E+03   N REF0 !
   PARAMETER G(LIQUID,AU,SI;2)  2.98150E+02  -13032.2412;   6.00000E+03   N 
  REF0 !


 TYPE_DEFINITION & GES A_P_D BCC_A2 MAGNETIC  -1.0    4.00000E-01 !
 PHASE BCC_A2  %&  2 1   3 !
    CONSTITUENT BCC_A2  :AU,SI : VA :  !

   PARAMETER G(BCC_A2,AU:VA;0)  2.98150E+02  -2688.856+105.730098*T
  -22.75455*T*LN(T)-.00385924*T**2+3.79625E-07*T**3-25097*T**(-1);  
  9.29400E+02  Y
   -89336.481+1020.59543*T-155.706745*T*LN(T)+.08756015*T**2
  -1.1518713E-05*T**3+10637210*T**(-1);  1.33733E+03  Y
   +318317.829-2017.47825*T+263.252259*T*LN(T)-.118216828*T**2
  +8.923844E-06*T**3-67999832*T**(-1);  1.73580E+03  Y
   -7883.783+164.172524*T-30.9616*T*LN(T);  3.20000E+03  N REF1 !
   PARAMETER G(BCC_A2,SI:VA;0)  2.98150E+02  +38837.391+114.736859*T
  -22.8317533*T*LN(T)-.001912904*T**2-3.552E-09*T**3+176667*T**(-1);  
  1.68700E+03  Y
   +37542.358+144.781367*T-27.196*T*LN(T)-4.20369E+30*T**(-9);  3.60000E+03  
  N REF1 !


 TYPE_DEFINITION ' GES A_P_D CBCC_A12 MAGNETIC  -3.0    2.80000E-01 !
 PHASE CBCC_A12  %'  2 1   1 !
    CONSTITUENT CBCC_A12  :SI : VA :  !

   PARAMETER G(CBCC_A12,SI:VA;0)  2.98150E+02  +42045.391+116.859859*T
  -22.8317533*T*LN(T)-.001912904*T**2-3.552E-09*T**3+176667*T**(-1);  
  1.68700E+03  Y
   +40750.358+146.904367*T-27.196*T*LN(T)-4.20369E+30*T**(-9);  3.60000E+03  
  N REF1 !


 PHASE CUB_A13  %  2 1   1 !
    CONSTITUENT CUB_A13  :SI : VA :  !

   PARAMETER G(CUB_A13,SI:VA;0)  2.98150E+02  +39116.391+116.859859*T
  -22.8317533*T*LN(T)-.001912904*T**2-3.552E-09*T**3+176667*T**(-1);  
  1.68700E+03  Y
   +37821.358+146.904367*T-27.196*T*LN(T)-4.20369E+30*T**(-9);  3.60000E+03  
  N REF1 !


 PHASE DIAMOND_A4  %  1  1.0  !
    CONSTITUENT DIAMOND_A4  :AU,SI :  !

   PARAMETER G(DIAMOND_A4,AU;0)  2.98150E+02  +GHSERAU#+12552+20.61589*T;   
  6.00000E+03   N REF0 !
   PARAMETER G(DIAMOND_A4,SI;0)  2.98150E+02  +GHSERSI#;  3.60000E+03  N 
  REF1 !
   PARAMETER G(DIAMOND_A4,AU,SI;0)  2.98150E+02  40000;   6.00000E+03   N 
  REF0 !


 TYPE_DEFINITION ( GES A_P_D FCC_A1 MAGNETIC  -3.0    2.80000E-01 !
 PHASE FCC_A1  %(  2 1   1 !
    CONSTITUENT FCC_A1  :AU,SI : VA :  !

   PARAMETER G(FCC_A1,AU:VA;0)  2.98150E+02  +GHSERAU#;  3.20000E+03  N REF1 !
   PARAMETER G(FCC_A1,SI:VA;0)  2.98150E+02  +42837.391+115.436859*T
  -22.8317533*T*LN(T)-.001912904*T**2-3.552E-09*T**3+176667*T**(-1);  
  1.68700E+03  Y
   +41542.358+145.481367*T-27.196*T*LN(T)-4.20369E+30*T**(-9);  3.60000E+03  
  N REF1 !
   PARAMETER G(FCC_A1,AU,SI:VA;0)  2.98150E+02  2000;   6.00000E+03   N REF0 !


 TYPE_DEFINITION ) GES A_P_D HCP_A3 MAGNETIC  -3.0    2.80000E-01 !
 PHASE HCP_A3  %)  2 1   .5 !
    CONSTITUENT HCP_A3  :AU,SI : VA :  !

   PARAMETER G(HCP_A3,AU:VA;0)  2.98150E+02  -6698.106+108.430098*T
  -22.75455*T*LN(T)-.00385924*T**2+3.79625E-07*T**3-25097*T**(-1);  
  9.29400E+02  Y
   -93345.731+1023.29543*T-155.706745*T*LN(T)+.08756015*T**2
  -1.1518713E-05*T**3+10637210*T**(-1);  1.33733E+03  Y
   +314308.579-2014.77825*T+263.252259*T*LN(T)-.118216828*T**2
  +8.923844E-06*T**3-67999832*T**(-1);  1.73580E+03  Y
   -11893.033+166.872524*T-30.9616*T*LN(T);  3.20000E+03  N REF1 !
   PARAMETER G(HCP_A3,SI:VA;0)  2.98150E+02  +41037.391+116.436859*T
  -22.8317533*T*LN(T)-.001912904*T**2-3.552E-09*T**3+176667*T**(-1);  
  1.68700E+03  Y
   +39742.358+146.481367*T-27.196*T*LN(T)-4.20369E+30*T**(-9);  3.60000E+03  
  N REF1 !


 PHASE HCP_ZN  %  2 1   .5 !
    CONSTITUENT HCP_ZN  :SI : VA :  !

   PARAMETER G(HCP_ZN,SI:VA;0)  2.98150E+02  +41038.391+116.436859*T
  -22.8317533*T*LN(T)-.001912904*T**2-3.552E-09*T**3+176667*T**(-1);  
  1.68700E+03  Y
   +39743.358+146.481367*T-27.196*T*LN(T)-4.20369E+30*T**(-9);  3.60000E+03  
  N REF1 !

 LIST_OF_REFERENCES
 NUMBER  SOURCE
   REF1   'PURE4 - SGTE Pure Elements (Unary) Database (Version 4.6), 
         developed by SGTE (Scientific Group Thermodata Europe), 1991-2008, 
         and provided by TCSAB (Jan. 2008). '
  ! 

